(set-info :source |printed by MathSAT|)

0 (7) @37:
(assert true)

7 (16) @50:
(assert true)

16 (18,22,21,20) @50:
(assert true)

18 () @375:
(assert true)

22 () @50:
(assert true)

21 () @376:
(assert true)

20 () @377:
(assert true)

